param set_len = 58;
param target_sum = 18024641587;
param values := [1] 558392118 [2] 1072477023 [3] 206218819 [4] 489401204 [5] 402012758 [6] 472433461 [7] 588593657 [8] 188494006 [9] 746752498 [10] 948880816 [11] 965010204 [12] 81139135 [13] 77628297 [14] 551030919 [15] 500630960 [16] 161752138 [17] 476743096 [18] 278422030 [19] 995056312 [20] 352226084 [21] 42510438 [22] 1045090641 [23] 361884887 [24] 133415889 [25] 670195650 [26] 810143268 [27] 836880993 [28] 1012172869 [29] 591390890 [30] 1003082066 [31] 756999655 [32] 1058563686 [33] 998472639 [34] 726967155 [35] 5388015 [36] 481595664 [37] 546316633 [38] 377769820 [39] 917532970 [40] 491775390 [41] 837564558 [42] 872640206 [43] 381754716 [44] 1034435158 [45] 458521909 [46] 13517601 [47] 343428163 [48] 54633915 [49] 919363151 [50] 767565806 [51] 820619653 [52] 619812092 [53] 917224673 [54] 363357472 [55] 727573197 [56] 314060059 [57] 184203113 [58] 675332469 ;
